c Result of efficient AIG-to-CNF conversion using package CNF
p cnf 550 1986
-2 3 425 429 450 0
2 -450 0
2 -3 0
2 -429 0
2 -425 0
-3 4 199 309 358 0
3 -358 0
3 -4 0
3 -309 0
3 -199 0
-4 130 138 0
-4 -5 -16 138 0
4 -138 0
4 16 -130 0
4 5 -130 0
5 -6 -13 0
-5 6 0
-5 13 0
6 -7 -10 -11 -12 0
-6 12 0
-6 7 0
-6 11 0
-6 10 0
7 -500 -501 -8 -9 0
-7 9 0
-7 500 0
-7 8 0
-7 501 0
8 -494 -495 -496 0
-8 494 0
-8 495 0
-8 496 0
9 -497 -498 -499 0
-9 497 0
-9 498 0
-9 499 0
10 -502 -503 -504 -505 0
-10 505 0
-10 502 0
-10 504 0
-10 503 0
11 -490 -491 -492 -493 0
-11 493 0
-11 490 0
-11 492 0
-11 491 0
12 -486 -487 -488 -489 0
-12 489 0
-12 486 0
-12 488 0
-12 487 0
13 -506 -512 -14 -15 0
-13 15 0
-13 506 0
-13 14 0
-13 512 0
14 -507 -508 -509 0
-14 507 0
-14 508 0
-14 509 0
15 -510 -511 0
-15 510 0
-15 511 0
-16 -513 17 0
-16 513 514 0
-16 513 126 0
16 -513 -17 0
16 513 -514 -126 0
-17 514 103 0
-17 -514 18 0
17 -514 -18 0
17 514 -103 0
18 -515 -19 0
18 515 -83 0
-18 515 83 0
-18 -515 19 0
19 -516 -20 0
19 516 -66 0
-19 516 66 0
-19 -516 20 0
20 -517 -21 0
20 517 -49 0
-20 517 49 0
-20 -517 21 0
21 545 -22 37 0
21 -545 37 -47 0
-21 -37 0
-21 -545 47 0
-21 545 22 0
22 546 -23 0
22 -546 -30 0
-22 -546 30 0
-22 546 23 0
23 547 -24 0
23 -547 -27 0
-23 -547 27 0
-23 547 24 0
24 548 -25 0
24 -548 -26 0
-24 -548 26 0
-24 548 25 0
25 -502 549 0
25 -501 -549 0
-25 502 549 0
-25 501 -549 0
26 -500 549 0
26 -499 -549 0
-26 500 549 0
-26 499 -549 0
27 548 -28 0
27 -548 -29 0
-27 -548 29 0
-27 548 28 0
28 -498 549 0
28 -497 -549 0
-28 498 549 0
-28 497 -549 0
29 -496 549 0
29 -495 -549 0
-29 496 549 0
-29 495 -549 0
30 547 -31 0
30 -547 -34 0
-30 -547 34 0
-30 547 31 0
31 548 -32 0
31 -548 -33 0
-31 -548 33 0
-31 548 32 0
32 -494 549 0
32 -493 -549 0
-32 494 549 0
-32 493 -549 0
33 -492 549 0
33 -491 -549 0
-33 492 549 0
-33 491 -549 0
34 548 -35 0
34 -548 -36 0
-34 -548 36 0
-34 548 35 0
35 -490 549 0
35 -489 -549 0
-35 490 549 0
-35 489 -549 0
36 -488 549 0
36 -487 -549 0
-36 488 549 0
-36 487 -549 0
-37 38 43 45 46 0
37 -46 0
37 -38 0
37 -45 0
37 -43 0
-38 533 541 39 41 0
38 -533 0
38 -41 0
38 -39 0
38 -541 0
-39 519 520 527 40 0
39 -40 0
39 -527 0
39 -519 0
39 -520 0
-40 528 530 538 0
40 -528 0
40 -538 0
40 -530 0
-41 542 543 544 42 0
41 -42 0
41 -544 0
41 -542 0
41 -543 0
-42 518 531 534 537 0
42 -537 0
42 -534 0
42 -518 0
42 -531 0
-43 522 532 536 44 0
43 -44 0
43 -536 0
43 -522 0
43 -532 0
-44 523 524 525 0
44 -523 0
44 -525 0
44 -524 0
-45 521 535 539 0
45 -521 0
45 -539 0
45 -535 0
-46 526 529 540 0
46 -526 0
46 -540 0
46 -529 0
47 546 -48 0
-47 -546 0
-47 48 0
48 -486 547 548 549 0
-48 -549 0
-48 -548 0
-48 486 0
-48 -547 0
49 50 -51 0
-49 -50 0
-49 51 0
-50 545 37 0
50 -545 0
50 -37 0
51 546 -52 0
51 -546 -59 0
-51 -546 59 0
-51 546 52 0
52 547 -53 0
52 -547 -56 0
-52 -547 56 0
-52 547 53 0
53 548 -54 0
53 -548 -55 0
-53 -548 55 0
-53 548 54 0
54 -501 549 0
54 -500 -549 0
-54 501 549 0
-54 500 -549 0
55 -499 549 0
55 -498 -549 0
-55 499 549 0
-55 498 -549 0
56 548 -57 0
56 -548 -58 0
-56 -548 58 0
-56 548 57 0
57 -497 549 0
57 -496 -549 0
-57 497 549 0
-57 496 -549 0
58 -495 549 0
58 -494 -549 0
-58 495 549 0
-58 494 -549 0
59 547 -60 0
59 -547 -63 0
-59 -547 63 0
-59 547 60 0
60 548 -61 0
60 -548 -62 0
-60 -548 62 0
-60 548 61 0
61 -493 549 0
61 -492 -549 0
-61 493 549 0
-61 492 -549 0
62 -491 549 0
62 -490 -549 0
-62 491 549 0
-62 490 -549 0
63 548 -64 0
63 -548 -65 0
-63 -548 65 0
-63 548 64 0
64 -489 549 0
64 -488 -549 0
-64 489 549 0
-64 488 -549 0
65 -487 549 0
65 -486 -549 0
-65 487 549 0
-65 486 -549 0
66 -517 -67 0
66 517 -75 0
-66 517 75 0
-66 -517 67 0
67 50 -68 0
-67 -50 0
-67 68 0
68 546 -69 0
68 -546 -72 0
-68 -546 72 0
-68 546 69 0
69 547 -70 0
69 -547 -71 0
-69 -547 71 0
-69 547 70 0
70 548 -26 0
70 -548 -28 0
-70 -548 28 0
-70 548 26 0
71 548 -29 0
71 -548 -32 0
-71 -548 32 0
-71 548 29 0
72 547 -73 0
72 -547 -74 0
-72 -547 74 0
-72 547 73 0
73 548 -33 0
73 -548 -35 0
-73 -548 35 0
-73 548 33 0
74 548 -36 0
74 -486 -548 549 0
-74 548 36 0
-74 -548 -549 0
-74 486 -548 0
75 50 -76 0
-75 -50 0
-75 76 0
76 546 -77 0
76 -546 -80 0
-76 -546 80 0
-76 546 77 0
77 547 -78 0
77 -547 -79 0
-77 -547 79 0
-77 547 78 0
78 548 -55 0
78 -548 -57 0
-78 -548 57 0
-78 548 55 0
79 548 -58 0
79 -548 -61 0
-79 -548 61 0
-79 548 58 0
80 547 -81 0
80 -547 -82 0
-80 -547 82 0
-80 547 81 0
81 548 -62 0
81 -548 -64 0
-81 -548 64 0
-81 548 62 0
82 -486 548 -549 0
82 -487 548 549 0
-82 -548 0
-82 486 -549 0
-82 487 549 0
83 -516 -84 0
83 516 -94 0
-83 516 94 0
-83 -516 84 0
84 -517 -85 0
84 517 -90 0
-84 517 90 0
-84 -517 85 0
85 50 -86 0
-85 -50 0
-85 86 0
86 546 -87 0
86 -546 -88 0
-86 -546 88 0
-86 546 87 0
87 547 -27 0
87 -547 -31 0
-87 -547 31 0
-87 547 27 0
88 547 -34 0
88 -547 -89 0
-88 -547 89 0
-88 547 34 0
89 -486 548 549 0
-89 486 0
-89 -549 0
-89 -548 0
90 50 -91 0
-90 -50 0
-90 91 0
91 546 -92 0
91 -546 -93 0
-91 -546 93 0
-91 546 92 0
92 547 -56 0
92 -547 -60 0
-92 -547 60 0
-92 547 56 0
93 547 -63 0
-93 -547 0
-93 63 0
94 -517 -95 0
94 517 -99 0
-94 517 99 0
-94 -517 95 0
95 50 -96 0
-95 -50 0
-95 96 0
96 546 -97 0
96 -546 -98 0
-96 -546 98 0
-96 546 97 0
97 547 -71 0
97 -547 -73 0
-97 -547 73 0
-97 547 71 0
98 547 -74 0
-98 -547 0
-98 74 0
99 50 -100 0
-99 -50 0
-99 100 0
100 546 -101 0
100 -546 -102 0
-100 -546 102 0
-100 546 101 0
101 547 -79 0
101 -547 -81 0
-101 -547 81 0
-101 547 79 0
102 547 -82 0
-102 -547 0
-102 82 0
103 -515 -104 0
103 515 -115 0
-103 515 115 0
-103 -515 104 0
104 -516 -105 0
104 516 -110 0
-104 516 110 0
-104 -516 105 0
105 -517 -106 0
105 517 -108 0
-105 517 108 0
-105 -517 106 0
106 50 -107 0
-106 -50 0
-106 107 0
107 546 -30 0
107 -546 -48 0
-107 -546 48 0
-107 546 30 0
108 50 -109 0
-108 -50 0
-108 109 0
109 546 -59 0
-109 -546 0
-109 59 0
110 -517 -111 0
110 517 -113 0
-110 517 113 0
-110 -517 111 0
111 50 -112 0
-111 -50 0
-111 112 0
112 546 -72 0
-112 -546 0
-112 72 0
113 50 -114 0
-113 -50 0
-113 114 0
114 546 -80 0
-114 -546 0
-114 80 0
115 -516 -116 0
115 516 -121 0
-115 516 121 0
-115 -516 116 0
116 -517 -117 0
116 517 -119 0
-116 517 119 0
-116 -517 117 0
117 50 -118 0
-117 -50 0
-117 118 0
118 546 -88 0
-118 -546 0
-118 88 0
119 50 -120 0
-119 -50 0
-119 120 0
120 546 -93 0
-120 -546 0
-120 93 0
121 -517 -122 0
121 517 -124 0
-121 517 124 0
-121 -517 122 0
122 50 -123 0
-122 -50 0
-122 123 0
123 546 -98 0
-123 -546 0
-123 98 0
124 50 -125 0
-124 -50 0
-124 125 0
125 546 -102 0
-125 -546 0
-125 102 0
126 -515 -127 0
-126 515 0
-126 127 0
127 -516 -128 0
-127 516 0
-127 128 0
128 -517 -129 0
-128 517 0
-128 129 0
129 -47 50 0
-129 47 0
-129 -50 0
130 -131 -132 0
130 -131 -133 -134 0
-130 131 0
-130 132 134 0
-130 132 133 0
131 -5 37 0
-131 5 0
-131 -37 0
132 -513 545 0
-132 513 0
-132 -545 0
133 -514 546 0
-133 514 0
-133 -546 0
134 -486 -135 -136 -137 0
-134 137 0
-134 486 0
-134 136 0
-134 135 0
135 -515 547 0
-135 515 0
-135 -547 0
136 -516 548 0
-136 516 0
-136 -548 0
137 -517 549 0
-137 517 0
-137 -549 0
-138 139 162 183 190 0
138 -162 0
138 -190 0
138 -139 0
138 -183 0
-139 141 -157 0
-139 141 152 0
-139 140 141 0
139 -141 0
139 -140 -152 157 0
140 -131 -132 0
-140 131 0
-140 132 0
141 12 -140 -142 0
141 -140 -142 145 0
-141 142 0
-141 140 0
-141 -12 -145 0
142 -133 -143 0
-142 133 0
-142 143 0
143 -135 -144 0
-143 135 0
-143 144 0
144 -486 -136 137 0
144 -487 -136 -137 0
-144 136 0
-144 487 -137 0
-144 486 137 0
145 -146 -148 0
-145 146 0
-145 148 0
146 -7 -10 -11 -147 0
-146 147 0
-146 7 0
-146 11 0
-146 10 0
147 -513 -13 0
-147 513 0
-147 13 0
148 -514 -149 0
-148 514 0
-148 149 0
149 -515 -150 0
-149 515 0
-149 150 0
150 -516 -151 0
-150 516 0
-150 151 0
151 -517 -124 0
151 517 -129 0
-151 517 129 0
-151 -517 124 0
152 -133 -153 0
-152 133 0
-152 153 0
153 -135 -154 0
-153 135 0
-153 154 0
154 136 -155 0
154 -136 -156 0
-154 -136 156 0
-154 136 155 0
155 -487 -137 0
155 -486 137 0
-155 486 137 0
-155 487 -137 0
156 -489 -137 0
156 -488 137 0
-156 488 137 0
-156 489 -137 0
157 -12 -146 -158 0
-157 12 0
-157 146 0
-157 158 0
158 -514 -159 0
-158 514 0
-158 159 0
159 -515 -160 0
-159 515 0
-159 160 0
160 516 -151 0
160 -516 -161 0
-160 -516 161 0
-160 516 151 0
161 -517 -119 0
161 517 -122 0
-161 517 122 0
-161 -517 119 0
-162 163 179 0
-162 163 -173 0
-162 140 163 0
162 -163 0
162 -140 173 -179 0
163 -140 166 -167 0
163 -140 164 -167 0
-163 167 0
-163 140 0
-163 -164 -166 0
164 -514 -165 0
-164 514 0
-164 165 0
165 -515 -115 0
165 515 -127 0
-165 515 127 0
-165 -515 115 0
166 -6 -147 0
-166 6 0
-166 147 0
167 -133 -168 0
-167 133 0
-167 168 0
168 135 -169 0
168 -135 -170 0
-168 -135 170 0
-168 135 169 0
169 -486 -136 -137 0
-169 486 0
-169 136 0
-169 137 0
170 -136 -171 0
170 136 -172 0
-170 136 172 0
-170 -136 171 0
171 -490 -137 0
171 -489 137 0
-171 489 137 0
-171 490 -137 0
172 -488 -137 0
172 -487 137 0
-172 487 137 0
-172 488 -137 0
173 -166 -174 0
-173 166 0
-173 174 0
174 -514 -175 0
-174 514 0
-174 175 0
175 515 -160 0
175 -515 -176 0
-175 -515 176 0
-175 515 160 0
176 -516 -177 0
176 516 -178 0
-176 516 178 0
-176 -516 177 0
177 -517 -108 0
177 517 -111 0
-177 517 111 0
-177 -517 108 0
178 -517 -113 0
178 517 -117 0
-178 517 117 0
-178 -517 113 0
179 -133 -135 -180 0
179 -133 135 -154 0
-179 133 0
-179 -135 180 0
-179 135 154 0
180 -136 -181 0
180 136 -182 0
-180 136 182 0
-180 -136 181 0
181 -493 -137 0
181 -492 137 0
-181 492 137 0
-181 493 -137 0
182 -491 -137 0
182 -490 137 0
-182 490 137 0
-182 491 -137 0
183 -140 184 -187 0
183 -140 166 -187 0
-183 187 0
-183 140 0
-183 -166 -184 0
184 -514 -185 0
-184 514 0
-184 185 0
185 515 -150 0
185 -515 -186 0
-185 -515 186 0
-185 515 150 0
186 516 -161 0
186 -516 -178 0
-186 -516 178 0
-186 516 161 0
187 -133 -188 0
-187 133 0
-187 188 0
188 135 -144 0
188 -135 -189 0
-188 -135 189 0
-188 135 144 0
189 136 -156 0
189 -136 -182 0
-189 -136 182 0
-189 136 156 0
190 -140 191 -195 0
190 -140 166 -195 0
-190 195 0
-190 140 0
-190 -166 -191 0
191 514 -149 0
191 -514 -192 0
-191 -514 192 0
-191 514 149 0
192 515 -186 0
192 -515 -193 0
-192 -515 193 0
-192 515 186 0
193 516 -177 0
193 -516 -194 0
-193 -516 194 0
-193 516 177 0
194 -517 -99 0
194 517 -106 0
-194 517 106 0
-194 -517 99 0
195 -133 -196 0
195 133 -135 -144 0
-195 -133 196 0
-195 133 144 0
-195 133 135 0
196 135 -189 0
196 -135 -197 0
-196 -135 197 0
-196 135 189 0
197 136 -181 0
197 -136 -198 0
-197 -136 198 0
-197 136 181 0
198 -495 -137 0
198 -494 137 0
-198 494 137 0
-198 495 -137 0
-199 131 200 0
-199 200 -231 0
-199 200 294 0
199 -200 0
199 -131 231 -294 0
-200 140 201 0
-200 -166 201 -226 0
200 -201 0
200 -140 226 0
200 -140 166 0
-201 202 222 0
-201 202 -217 0
-201 140 202 0
201 -202 0
201 -140 217 -222 0
202 -140 203 -209 0
202 -140 166 -209 0
-202 209 0
-202 140 0
-202 -166 -203 0
203 -514 -204 0
203 514 -207 0
-203 514 207 0
-203 -514 204 0
204 -515 -205 0
204 515 -206 0
-204 515 206 0
-204 -515 205 0
205 -516 -94 0
205 516 -105 0
-205 516 105 0
-205 -516 94 0
206 -516 -110 0
206 516 -116 0
-206 516 116 0
-206 -516 110 0
207 -515 -208 0
-207 515 0
-207 208 0
208 -516 -121 0
208 516 -128 0
-208 516 128 0
-208 -516 121 0
209 -133 -210 0
209 133 -135 -216 0
-209 -133 210 0
-209 133 135 0
-209 133 216 0
210 -135 -211 0
210 135 -214 0
-210 135 214 0
-210 -135 211 0
211 -136 -212 0
211 136 -213 0
-211 136 213 0
-211 -136 212 0
212 -496 -137 0
212 -495 137 0
-212 495 137 0
-212 496 -137 0
213 -494 -137 0
213 -493 137 0
-213 493 137 0
-213 494 -137 0
214 136 -171 0
214 -136 -215 0
-214 -136 215 0
-214 136 171 0
215 -492 -137 0
215 -491 137 0
-215 491 137 0
-215 492 -137 0
216 -136 -172 0
216 -486 136 -137 0
-216 136 137 0
-216 -136 172 0
-216 486 136 0
217 -166 -218 0
-217 166 0
-217 218 0
218 514 -159 0
218 -514 -219 0
-218 -514 219 0
-218 514 159 0
219 515 -176 0
219 -515 -220 0
-219 -515 220 0
-219 515 176 0
220 516 -194 0
220 -516 -221 0
-220 -516 221 0
-220 516 194 0
221 -517 -90 0
221 517 -95 0
-221 517 95 0
-221 -517 90 0
222 133 -153 0
222 -133 223 -225 0
-222 -133 -223 0
-222 133 153 0
-222 -133 225 0
223 -135 -136 224 0
223 -135 136 198 0
-223 135 0
-223 -136 -224 0
-223 136 -198 0
224 -497 -137 0
224 -496 137 0
-224 496 137 0
-224 497 -137 0
-225 135 180 0
225 -135 0
225 -180 0
226 514 -175 0
226 -514 -227 0
-226 -514 227 0
-226 514 175 0
227 515 -220 0
227 -515 -228 0
-227 -515 228 0
-227 515 220 0
228 -516 -229 0
228 516 -230 0
-228 516 230 0
-228 -516 229 0
229 -517 -49 0
229 517 -67 0
-229 517 67 0
-229 -517 49 0
230 -517 -75 0
230 517 -85 0
-230 517 85 0
-230 -517 75 0
231 -513 -5 -232 0
231 513 -5 -203 0
-231 5 0
-231 -513 232 0
-231 513 203 0
232 -514 -233 0
232 514 -286 0
-232 514 286 0
-232 -514 233 0
233 -515 -234 0
233 515 -271 0
-233 515 271 0
-233 -515 234 0
234 -516 -235 0
234 516 -260 0
-234 516 260 0
-234 -516 235 0
235 -517 -236 0
235 517 -248 0
-235 517 248 0
-235 -517 236 0
236 545 37 -237 0
236 -545 37 -96 0
-236 -37 0
-236 545 237 0
-236 -545 96 0
-237 546 238 0
-237 -546 245 0
237 -546 -245 0
237 546 -238 0
-238 547 242 0
-238 -547 239 0
238 -547 -239 0
238 547 -242 0
239 548 -240 0
239 -548 -241 0
-239 -548 241 0
-239 548 240 0
240 -508 549 0
240 -507 -549 0
-240 508 549 0
-240 507 -549 0
241 -506 549 0
241 -505 -549 0
-241 506 549 0
-241 505 -549 0
242 548 -243 0
242 -548 -244 0
-242 -548 244 0
-242 548 243 0
243 -512 549 0
243 -511 -549 0
-243 512 549 0
-243 511 -549 0
244 -510 549 0
244 -509 -549 0
-244 510 549 0
-244 509 -549 0
245 -547 -70 0
245 547 -246 0
-245 547 246 0
-245 -547 70 0
246 -548 -25 0
246 548 -247 0
-246 548 247 0
-246 -548 25 0
247 -504 549 0
247 -503 -549 0
-247 504 549 0
-247 503 -549 0
248 545 37 -249 0
248 -545 37 -100 0
-248 -37 0
-248 545 249 0
-248 -545 100 0
-249 546 250 0
-249 -546 257 0
249 -546 -257 0
249 546 -250 0
-250 547 254 0
-250 -547 251 0
250 -547 -251 0
250 547 -254 0
251 548 -252 0
251 -548 -253 0
-251 -548 253 0
-251 548 252 0
252 -507 549 0
252 -506 -549 0
-252 507 549 0
-252 506 -549 0
253 -505 549 0
253 -504 -549 0
-253 505 549 0
-253 504 -549 0
254 548 -255 0
254 -548 -256 0
-254 -548 256 0
-254 548 255 0
255 -511 549 0
255 -510 -549 0
-255 511 549 0
-255 510 -549 0
256 -509 549 0
256 -508 -549 0
-256 509 549 0
-256 508 -549 0
257 -547 -78 0
257 547 -258 0
-257 547 258 0
-257 -547 78 0
258 -548 -54 0
258 548 -259 0
-258 548 259 0
-258 -548 54 0
259 -503 549 0
259 -502 -549 0
-259 503 549 0
-259 502 -549 0
260 -517 -261 0
260 517 -266 0
-260 517 266 0
-260 -517 261 0
261 545 37 -262 0
261 -545 37 -107 0
-261 -37 0
-261 545 262 0
-261 -545 107 0
-262 -546 23 0
-262 546 263 0
262 -546 -23 0
262 546 -263 0
-263 547 265 0
-263 -547 264 0
263 -547 -264 0
263 547 -265 0
264 548 -241 0
264 -548 -247 0
-264 -548 247 0
-264 548 241 0
265 -548 -240 0
265 548 -244 0
-265 548 244 0
-265 -548 240 0
266 545 37 -267 0
266 -545 37 -109 0
-266 -37 0
-266 -545 109 0
-266 545 267 0
267 -546 -52 0
267 546 -268 0
-267 546 268 0
-267 -546 52 0
268 547 -269 0
268 -547 -270 0
-268 -547 270 0
-268 547 269 0
269 -548 -252 0
269 548 -256 0
-269 548 256 0
-269 -548 252 0
270 548 -253 0
270 -548 -259 0
-270 -548 259 0
-270 548 253 0
271 -516 -272 0
271 516 -279 0
-271 516 279 0
-271 -516 272 0
272 -517 -273 0
272 517 -276 0
-272 517 276 0
-272 -517 273 0
273 545 37 -274 0
273 -545 37 -112 0
-273 -37 0
-273 -545 112 0
-273 545 274 0
274 -546 -69 0
274 546 -275 0
-274 546 275 0
-274 -546 69 0
275 547 -239 0
275 -547 -246 0
-275 -547 246 0
-275 547 239 0
276 545 37 -277 0
276 -545 37 -114 0
-276 -37 0
-276 -545 114 0
-276 545 277 0
277 -546 -77 0
277 546 -278 0
-277 546 278 0
-277 -546 77 0
278 547 -251 0
278 -547 -258 0
-278 -547 258 0
-278 547 251 0
279 -517 -280 0
279 517 -283 0
-279 517 283 0
-279 -517 280 0
280 545 37 -281 0
280 -545 37 -118 0
-280 -37 0
-280 -545 118 0
-280 545 281 0
281 -546 -87 0
281 546 -282 0
-281 546 282 0
-281 -546 87 0
282 -547 -24 0
282 547 -264 0
-282 547 264 0
-282 -547 24 0
283 545 37 -284 0
283 -545 37 -120 0
-283 -37 0
-283 -545 120 0
-283 545 284 0
284 -546 -92 0
284 546 -285 0
-284 546 285 0
-284 -546 92 0
285 -547 -53 0
285 547 -270 0
-285 547 270 0
-285 -547 53 0
286 -515 -287 0
286 515 -293 0
-286 515 293 0
-286 -515 287 0
287 516 -20 0
287 -516 -288 0
-287 -516 288 0
-287 516 20 0
288 -517 -289 0
288 517 -291 0
-288 517 291 0
-288 -517 289 0
289 545 37 -290 0
289 -545 37 -123 0
-289 -37 0
-289 -545 123 0
-289 545 290 0
290 -546 -97 0
290 546 -245 0
-290 546 245 0
-290 -546 97 0
291 545 37 -292 0
291 -545 37 -125 0
-291 -37 0
-291 -545 125 0
-291 545 292 0
292 -546 -101 0
292 546 -257 0
-292 546 257 0
-292 -546 101 0
293 -516 -66 0
293 516 -84 0
-293 516 84 0
-293 -516 66 0
-294 132 209 0
-294 -132 295 302 0
294 132 -209 0
294 -132 -302 0
294 -132 -295 0
295 -133 -135 -299 0
295 -133 135 -296 0
-295 133 0
-295 -135 299 0
-295 135 296 0
296 -136 -297 0
296 136 -298 0
-296 136 298 0
-296 -136 297 0
297 -508 -137 0
297 -507 137 0
-297 507 137 0
-297 508 -137 0
298 -506 -137 0
298 -505 137 0
-298 505 137 0
-298 506 -137 0
299 -136 -300 0
299 136 -301 0
-299 136 301 0
-299 -136 300 0
300 -512 -137 0
300 -511 137 0
-300 511 137 0
-300 512 -137 0
301 -510 -137 0
301 -509 137 0
-301 509 137 0
-301 510 -137 0
302 133 135 -306 0
302 133 -135 -303 0
-302 -133 0
-302 -135 303 0
-302 135 306 0
303 -136 -304 0
303 136 -305 0
-303 136 305 0
-303 -136 304 0
304 -504 -137 0
304 -503 137 0
-304 503 137 0
-304 504 -137 0
305 -502 -137 0
305 -501 137 0
-305 501 137 0
-305 502 -137 0
306 -136 -307 0
306 136 -308 0
-306 136 308 0
-306 -136 307 0
307 -500 -137 0
307 -499 137 0
-307 499 137 0
-307 500 -137 0
308 -498 -137 0
308 -497 137 0
-308 497 137 0
-308 498 -137 0
-309 -310 348 0
-309 340 348 0
-309 131 348 0
309 -348 0
309 -131 310 -340 0
310 513 -5 -337 0
310 -513 -5 -311 0
-310 5 0
-310 -513 311 0
-310 513 337 0
311 -514 -312 0
311 514 -336 0
-311 514 336 0
-311 -514 312 0
312 515 -234 0
312 -515 -313 0
-312 -515 313 0
-312 515 234 0
313 -516 -314 0
313 516 -327 0
-313 516 327 0
-313 -516 314 0
314 517 -315 0
314 -517 -321 0
-314 -517 321 0
-314 517 315 0
315 545 37 -316 0
315 -545 37 -76 0
-315 -37 0
-315 545 316 0
-315 -545 76 0
-316 -546 278 0
-316 546 317 0
316 -546 -278 0
316 546 -317 0
-317 -547 254 0
-317 547 318 0
317 -547 -254 0
317 547 -318 0
-318 548 320 0
-318 -548 319 0
318 -548 -319 0
318 548 -320 0
319 -513 549 0
319 -512 -549 0
-319 513 549 0
-319 512 -549 0
320 -515 549 0
320 -514 -549 0
-320 515 549 0
-320 514 -549 0
321 545 37 -322 0
321 -545 37 -68 0
-321 -37 0
-321 545 322 0
-321 -545 68 0
-322 -546 275 0
-322 546 323 0
322 -546 -275 0
322 546 -323 0
-323 -547 242 0
-323 547 324 0
323 -547 -242 0
323 547 -324 0
-324 548 326 0
-324 -548 325 0
324 -548 -325 0
324 548 -326 0
325 -514 549 0
325 -513 -549 0
-325 514 549 0
-325 513 -549 0
326 -516 549 0
326 -515 -549 0
-326 516 549 0
-326 515 -549 0
327 -517 -328 0
327 517 -332 0
-327 517 332 0
-327 -517 328 0
328 545 37 -329 0
328 -545 37 -86 0
-328 -37 0
-328 545 329 0
-328 -545 86 0
-329 -546 282 0
-329 546 330 0
329 -546 -282 0
329 546 -330 0
-330 -547 265 0
-330 547 331 0
330 -547 -265 0
330 547 -331 0
-331 548 325 0
-331 -548 243 0
331 -548 -243 0
331 548 -325 0
332 545 37 -333 0
332 -545 37 -91 0
-332 -37 0
-332 545 333 0
-332 -545 91 0
-333 -546 285 0
-333 546 334 0
333 -546 -285 0
333 546 -334 0
-334 547 335 0
-334 -547 269 0
334 -547 -269 0
334 547 -335 0
335 -548 -255 0
335 548 -319 0
-335 548 319 0
-335 -548 255 0
336 -515 -271 0
336 515 -287 0
-336 515 287 0
-336 -515 271 0
337 -514 -338 0
337 514 -339 0
-337 514 339 0
-337 -514 338 0
338 515 -205 0
338 -515 -293 0
-338 -515 293 0
-338 515 205 0
339 -515 -206 0
339 515 -208 0
-339 515 208 0
-339 -515 206 0
-340 132 345 0
-340 -132 341 344 0
340 -132 -341 0
340 132 -345 0
340 -132 -344 0
341 -133 135 -299 0
341 -133 -135 -342 0
-341 133 0
-341 -135 342 0
-341 135 299 0
-342 136 343 0
-342 515 -136 137 0
342 -515 -136 0
342 136 -343 0
342 -136 -137 0
343 -514 -137 0
343 -513 137 0
-343 513 137 0
-343 514 -137 0
344 133 135 -303 0
344 133 -135 -296 0
-344 -133 0
-344 -135 296 0
-344 135 303 0
345 -133 -346 0
345 133 -347 0
-345 133 347 0
-345 -133 346 0
346 135 -211 0
346 -135 -306 0
-346 -135 306 0
-346 135 211 0
347 -135 -214 0
347 135 -216 0
-347 135 216 0
-347 -135 214 0
348 -131 -179 349 0
348 -131 -132 349 0
-348 131 0
-348 -349 0
-348 132 179 0
349 -513 -5 -350 0
349 513 -5 -174 0
-349 5 0
-349 -513 350 0
-349 513 174 0
350 514 -227 0
350 -514 -351 0
-350 -514 351 0
-350 514 227 0
351 -515 -352 0
351 515 -355 0
-351 515 355 0
-351 -515 352 0
352 -516 -353 0
352 516 -354 0
-352 516 354 0
-352 -516 353 0
353 -517 -266 0
353 517 -273 0
-353 517 273 0
-353 -517 266 0
354 -517 -276 0
354 517 -280 0
-354 517 280 0
-354 -517 276 0
355 -516 -356 0
355 516 -357 0
-355 516 357 0
-355 -516 356 0
356 -517 -283 0
356 517 -289 0
-356 517 289 0
-356 -517 283 0
357 517 -21 0
357 -517 -291 0
-357 -517 291 0
-357 517 21 0
-358 359 414 417 422 0
358 -422 0
358 -417 0
358 -359 0
358 -414 0
-359 131 360 0
-359 360 -388 0
-359 360 399 0
359 -360 0
359 -131 388 -399 0
-360 361 368 372 380 0
360 -380 0
360 -372 0
360 -361 0
360 -368 0
361 -140 362 -364 0
361 -140 166 -364 0
-361 364 0
-361 140 0
-361 -166 -362 0
362 514 -165 0
362 -514 -363 0
-362 -514 363 0
-362 514 165 0
363 -515 -83 0
363 515 -104 0
-363 515 104 0
-363 -515 83 0
364 133 -168 0
364 -133 -365 0
-364 -133 365 0
-364 133 168 0
365 -135 -366 0
365 135 -367 0
-365 135 367 0
-365 -135 366 0
366 136 -212 0
366 -136 -308 0
-366 -136 308 0
-366 136 212 0
367 -136 -213 0
367 136 -215 0
-367 136 215 0
-367 -136 213 0
368 -140 369 -370 0
368 -140 166 -370 0
-368 370 0
-368 140 0
-368 -166 -369 0
369 -514 -103 0
369 514 -126 0
-369 514 126 0
-369 -514 103 0
370 -133 -371 0
370 133 -135 -169 0
-370 -133 371 0
-370 133 169 0
-370 133 135 0
371 135 -170 0
371 -135 -367 0
-371 -135 367 0
-371 135 170 0
372 -140 373 -376 0
372 -140 166 -376 0
-372 376 0
-372 140 0
-372 -166 -373 0
373 514 -185 0
373 -514 -374 0
-373 -514 374 0
-373 514 185 0
374 515 -193 0
374 -515 -375 0
-374 -515 375 0
-374 515 193 0
375 516 -221 0
375 -516 -230 0
-375 -516 230 0
-375 516 221 0
376 133 -188 0
376 -133 -377 0
-376 -133 377 0
-376 133 188 0
377 135 -197 0
377 -135 -378 0
-377 -135 378 0
-377 135 197 0
378 136 -224 0
378 -136 -379 0
-378 -136 379 0
-378 136 224 0
379 -499 -137 0
379 -498 137 0
-379 498 137 0
-379 499 -137 0
-380 381 -386 0
-380 381 384 0
-380 140 381 0
380 -381 0
380 -140 -384 386 0
381 -140 382 -383 0
381 -140 166 -383 0
-381 383 0
-381 140 0
-381 -166 -382 0
382 -514 -339 0
-382 514 0
-382 339 0
383 -133 -347 0
-383 133 0
-383 347 0
384 -133 -385 0
-384 133 0
-384 385 0
385 -135 -216 0
-385 135 0
-385 216 0
386 -12 -146 -387 0
-386 12 0
-386 146 0
-386 387 0
387 -514 -207 0
-387 514 0
-387 207 0
388 -513 -5 -389 0
388 513 -5 -373 0
-388 5 0
-388 -513 389 0
-388 513 373 0
389 -514 -390 0
389 514 -396 0
-389 514 396 0
-389 -514 390 0
390 -515 -391 0
390 515 -394 0
-390 515 394 0
-390 -515 391 0
391 -516 -392 0
391 516 -393 0
-391 516 393 0
-391 -516 392 0
392 -517 -315 0
392 517 -328 0
-392 517 328 0
-392 -517 315 0
393 517 -236 0
393 -517 -332 0
-393 -517 332 0
-393 517 236 0
394 516 -353 0
394 -516 -395 0
-394 -516 395 0
-394 516 353 0
395 -517 -248 0
395 517 -261 0
-395 517 261 0
-395 -517 248 0
396 -515 -397 0
396 515 -398 0
-396 515 398 0
-396 -515 397 0
397 -516 -354 0
397 516 -356 0
-397 516 356 0
-397 -516 354 0
398 516 -229 0
398 -516 -357 0
-398 -516 357 0
-398 516 229 0
-399 132 376 0
-399 -132 400 407 0
399 132 -376 0
399 -132 -407 0
399 -132 -400 0
400 -133 135 -404 0
400 -133 -135 -401 0
-400 133 0
-400 -135 401 0
-400 135 404 0
-401 -136 403 0
-401 136 402 0
401 136 -402 0
401 -136 -403 0
402 -513 -137 0
402 -512 137 0
-402 512 137 0
-402 513 -137 0
403 -515 -137 0
403 -514 137 0
-403 514 137 0
-403 515 -137 0
404 -136 -405 0
404 136 -406 0
-404 136 406 0
-404 -136 405 0
405 -511 -137 0
405 -510 137 0
-405 510 137 0
-405 511 -137 0
406 -509 -137 0
406 -508 137 0
-406 508 137 0
-406 509 -137 0
407 133 135 -411 0
407 133 -135 -408 0
-407 -133 0
-407 -135 408 0
-407 135 411 0
408 -136 -409 0
408 136 -410 0
-408 136 410 0
-408 -136 409 0
409 -507 -137 0
409 -506 137 0
-409 506 137 0
-409 507 -137 0
410 -505 -137 0
410 -504 137 0
-410 504 137 0
-410 505 -137 0
411 -136 -412 0
411 136 -413 0
-411 136 413 0
-411 -136 412 0
412 -503 -137 0
412 -502 137 0
-412 502 137 0
-412 503 -137 0
413 -501 -137 0
413 -500 137 0
-413 500 137 0
-413 501 -137 0
414 -131 -383 415 0
414 -131 -132 415 0
-414 131 0
-414 -415 0
-414 132 383 0
415 -513 -5 -416 0
415 513 -5 -382 0
-415 5 0
-415 -513 416 0
-415 513 382 0
416 -514 -336 0
416 514 -338 0
-416 514 338 0
-416 -514 336 0
417 -131 -167 418 0
417 -131 -132 418 0
-417 131 0
-417 -418 0
-417 132 167 0
418 -513 -5 -419 0
418 513 -5 -164 0
-418 5 0
-418 -513 419 0
-418 513 164 0
419 514 -363 0
419 -514 -420 0
-419 -514 420 0
-419 514 363 0
420 515 -19 0
420 -515 -421 0
-420 -515 421 0
-420 515 19 0
421 -516 -279 0
421 516 -288 0
-421 516 288 0
-421 -516 279 0
422 -131 -187 423 0
422 -131 -132 423 0
-422 131 0
-422 -423 0
-422 132 187 0
423 -513 -5 -424 0
423 513 -5 -184 0
-423 5 0
-423 -513 424 0
-423 513 184 0
424 514 -374 0
424 -514 -396 0
-424 -514 396 0
-424 514 374 0
425 -131 -142 426 0
425 -131 -132 426 0
-425 131 0
-425 -426 0
-425 132 142 0
426 -513 -5 -427 0
426 513 -5 -148 0
-426 5 0
-426 -513 427 0
-426 513 148 0
427 514 -192 0
427 -514 -428 0
-427 -514 428 0
-427 514 192 0
428 515 -375 0
428 -515 -398 0
-428 -515 398 0
-428 515 375 0
-429 131 440 0
-429 -430 440 0
-429 434 440 0
429 -440 0
429 -131 430 -434 0
430 -513 -5 -431 0
430 513 -5 -369 0
-430 5 0
-430 -513 431 0
-430 513 369 0
431 514 -18 0
431 -514 -432 0
-431 -514 432 0
-431 514 18 0
432 515 -421 0
432 -515 -433 0
-432 -515 433 0
-432 515 421 0
433 -516 -260 0
433 516 -272 0
-433 516 272 0
-433 -516 260 0
-434 132 370 0
-434 -132 435 438 0
434 132 -370 0
434 -132 -438 0
434 -132 -435 0
435 -133 -135 -437 0
435 -133 135 -436 0
-435 133 0
-435 -135 437 0
-435 135 436 0
436 -136 -298 0
436 136 -304 0
-436 136 304 0
-436 -136 298 0
437 136 -297 0
437 -136 -301 0
-437 -136 301 0
-437 136 297 0
438 133 -135 -439 0
438 133 135 -366 0
-438 -133 0
-438 -135 439 0
-438 135 366 0
439 -136 -305 0
439 136 -307 0
-439 136 307 0
-439 -136 305 0
-440 441 447 0
-440 441 -444 0
-440 131 441 0
440 -441 0
440 -131 444 -447 0
441 -131 -384 442 0
441 -131 -132 442 0
-441 131 0
-441 -442 0
-441 132 384 0
442 -513 -5 -443 0
442 513 -5 -387 0
-442 5 0
-442 -513 443 0
-442 513 387 0
443 514 -204 0
443 -514 -286 0
-443 -514 286 0
-443 514 204 0
444 -513 -5 -445 0
444 513 -5 -191 0
-444 5 0
-444 -513 445 0
-444 513 191 0
445 514 -428 0
445 -514 -446 0
-445 -514 446 0
-445 514 428 0
446 -515 -394 0
446 515 -397 0
-446 515 397 0
-446 -515 394 0
-447 132 195 0
-447 -132 448 449 0
447 132 -195 0
447 -132 -449 0
447 -132 -448 0
448 -133 135 -408 0
448 -133 -135 -404 0
-448 133 0
-448 -135 404 0
-448 135 408 0
449 133 -135 -411 0
449 133 135 -378 0
-449 -133 0
-449 -135 411 0
-449 135 378 0
-450 456 463 472 0
-450 -451 463 472 0
450 -472 0
450 -463 0
450 451 -456 0
451 -513 -5 -452 0
451 513 -5 -218 0
-451 5 0
-451 -513 452 0
-451 513 218 0
452 -514 -453 0
452 514 -455 0
-452 514 455 0
-452 -514 453 0
453 515 -352 0
453 -515 -454 0
-453 -515 454 0
-453 515 352 0
454 -516 -393 0
454 516 -395 0
-454 516 395 0
-454 -516 393 0
455 515 -228 0
455 -515 -355 0
-455 -515 355 0
-455 515 228 0
456 -131 132 -222 0
456 -131 -132 -457 0
-456 131 0
-456 -132 457 0
-456 132 222 0
-457 -133 458 0
-457 133 462 0
-457 133 -461 0
457 -133 -458 0
457 133 461 -462 0
-458 459 460 0
458 -459 0
458 -460 0
459 135 136 -409 0
459 135 -136 -406 0
-459 -135 0
-459 -136 406 0
-459 136 409 0
460 -135 136 -405 0
460 -135 -136 -402 0
-460 135 0
-460 -136 402 0
-460 136 405 0
461 -135 136 412 0
461 -135 -136 410 0
-461 135 0
-461 -136 -410 0
-461 136 -412 0
-462 135 -136 413 0
-462 135 136 379 0
462 -135 0
462 -136 -413 0
462 136 -379 0
463 -131 464 -468 0
-463 131 0
-463 468 0
-463 -464 0
464 -513 -5 -465 0
464 513 -5 -362 0
-464 5 0
-464 -513 465 0
-464 513 362 0
465 514 -420 0
465 -514 -466 0
-465 -514 466 0
-465 514 420 0
466 515 -433 0
466 -515 -467 0
-466 -515 467 0
-466 515 433 0
467 516 -235 0
467 -516 -327 0
-467 -516 327 0
-467 516 235 0
-468 132 364 0
-468 -132 469 471 0
468 132 -364 0
468 -132 -471 0
468 -132 -469 0
469 -133 135 -437 0
469 -133 -135 -470 0
-469 133 0
-469 -135 470 0
-469 135 437 0
-470 -136 343 0
-470 136 300 0
470 136 -300 0
470 -136 -343 0
471 133 135 -439 0
471 133 -135 -436 0
-471 -133 0
-471 -135 436 0
-471 135 439 0
-472 131 0
-472 -473 -476 0
-472 475 -476 0
472 -131 476 0
472 -131 473 -475 0
473 -513 -5 -474 0
473 513 -5 -158 0
-473 5 0
-473 -513 474 0
-473 513 158 0
474 514 -219 0
474 -514 -455 0
-474 -514 455 0
-474 514 219 0
-475 132 152 0
475 -132 0
475 -152 0
476 -513 -5 -477 0
476 513 -5 -226 0
-476 5 0
-476 -513 477 0
-476 513 226 0
477 514 -351 0
477 -514 -478 0
-477 -514 478 0
-477 514 351 0
478 515 -454 0
478 -515 -479 0
-478 -515 479 0
-478 515 454 0
479 516 -392 0
479 -516 -480 0
-479 -516 480 0
-479 516 392 0
480 517 -321 0
480 -517 37 -481 0
-480 517 321 0
-480 -517 -37 0
-480 -517 481 0
-481 -545 51 0
-481 545 482 0
481 -545 -51 0
481 545 -482 0
-482 -546 268 0
-482 546 483 0
482 -546 -268 0
482 546 -483 0
-483 -547 335 0
-483 547 484 0
483 -547 -335 0
483 547 -484 0
-484 -548 320 0
-484 548 137 485 0
484 548 -485 0
484 -548 -320 0
484 548 -137 0
485 -516 -549 0
-485 516 0
-485 549 0
-550 0
2 0

